! Solving for graph ../../../benchmarks/abp/M-bcsstk06.mtx.rnd
! Target value is set to 34
 ! --------------------------------------------------- CP Optimizer 22.2.0.0 --
 ! Minimization problem - 421 variables, 4141 constraints, 1 phase
 ! TimeLimit            = 1800
 ! LogVerbosity         = Terse
 ! Initial process time : 0.05s (0.05s extraction + 0.00s propagation)
 !  . Log search space  : 3668.6 (before), 3668.6 (after)
 !  . Memory usage      : 1.5 MB (before), 1.5 MB (after)
 ! Using parallel search with 8 workers.
 ! ----------------------------------------------------------------------------
 !          Best Branches  Non-fixed    W       Branch decision
                        0        421                 -
 + New bound is 35
                        2        420    1   F     1 != _int245
 + New bound is 36
 ! ----------------------------------------------------------------------------
 ! Search terminated by limit, no solution found.
 ! Best bound             : 36
 ! ----------------------------------------------------------------------------
 ! Number of branches     : 246787492
 ! Number of fails        : 117063076
 ! Total memory usage     : 240.1 MB (238.2 MB CP Optimizer + 1.9 MB Concert)
 ! Time spent in solve    : 1800.02s (1799.97s engine + 0.05s extraction)
 ! Search speed (br. / s) : 137106.4
 ! ----------------------------------------------------------------------------
! --------------------------------------------------------
! No solution
! --------------------------------------------------------
